20	5
0	7	2	3	5	4	15	1	16
1	1	14
2	1	11
3	2	8	20
4	2	10	17
5	1	9
6	3	13	11	18
7	1	6
8	2	7	19
9	1	12
10	1	8
11	1	21
12	1	21
13	1	21
14	1	21
15	2	21	9
16	2	21	5
17	1	21
18	1	21
19	1	21
20	1	21
21	0
0	0	0	0	0	0	0
1	7	2	1	1	2	3
2	7	2	2	5	5	4
3	4	2	5	3	5	5
4	2	3	3	1	1	2
5	5	1	3	4	5	4
6	5	5	5	4	3	3
7	8	4	3	4	3	3
8	9	4	4	1	3	1
9	8	2	3	4	3	2
10	1	3	5	1	1	1
11	10	4	4	4	3	5
12	2	3	1	2	3	4
13	4	1	2	3	3	3
14	3	4	3	1	2	1
15	10	3	4	5	5	4
16	2	2	5	1	1	3
17	7	5	2	5	3	3
18	3	3	5	3	4	2
19	9	2	4	5	2	1
20	10	1	5	4	2	5
21	0	0	0	0	0	0
5	5	5	5	5
